3 3 2
30 1 89 0 17 1 32 2 9 0 5 1 81 0 58 1 13 0 23 2 60 1 31 0 74 2 51 1 5 0 97 2 51 0 89 2 12 0 21 2 95 0 79 1 6 0 73 2 60 1 96 0 85 1 77 2 78 0 86 1 63 
30 0 36 2 29 0 89 2 52 1 29 0 33 2 48 0 21 1 1 2 84 1 68 2 10 0 31 1 50 2 9 1 5 0 23 1 65 0 84 2 16 1 76 0 7 1 78 2 49 0 33 1 10 2 69 0 31 2 87 0 38 
30 1 70 2 20 1 85 2 73 1 49 0 5 2 87 0 22 1 50 2 46 0 55 1 43 0 11 1 26 2 55 1 13 0 60 2 86 0 62 1 51 2 24 0 5 1 55 2 64 0 88 1 99 0 33 1 91 0 85 2 49 

-------------
